Speck32/MILP/sol/6Round_200.sol
# Objective value = 15.999999999999996
pro0Rd0 -0.0
pro1Rd0 1.0
pro2Rd0 1.0000000000000004
pro3Rd0 -8.120488408687018e-15
pro4Rd0 1.0
pro5Rd0 1.0
pro6Rd0 -0.0
pro7Rd0 -6.597896832058179e-15
pro8Rd0 4.948422624043634e-15
pro9Rd0 2.220446049250313e-16
pro10Rd0 -1.1102230246251565e-16
pro11Rd0 -0.0
pro12Rd0 1.0
pro13Rd0 -2.220446049250313e-16
pro14Rd0 -6.724779463443885e-15
pro0Rd1 -0.0
pro1Rd1 0.0
pro2Rd1 -2.220446049250313e-16
pro3Rd1 -0.0
pro4Rd1 -0.0
pro5Rd1 0.0
pro6Rd1 0.0
pro7Rd1 0.0
pro8Rd1 1.0
pro9Rd1 1.0000000000000004
pro10Rd1 1.0
pro11Rd1 4.060244204343509e-15
pro12Rd1 4.948422624043634e-15
pro13Rd1 -3.552713678800501e-15
pro14Rd1 -0.0
pro0Rd2 -0.0
pro1Rd2 0.0
pro2Rd2 4.28228880926854e-15
pro3Rd2 0.0
pro4Rd2 9.896845248087269e-15
pro5Rd2 -4.504333414193572e-15
pro6Rd2 -0.0
pro7Rd2 -2.220446049250313e-16
pro8Rd2 -0.0
pro9Rd2 -0.0
pro10Rd2 -0.0
pro11Rd2 0.0
pro12Rd2 0.0
pro13Rd2 0.0
pro14Rd2 -7.636748376528885e-15
pro0Rd3 -4.726378019118603e-15
pro1Rd3 -4.726378019118603e-15
pro2Rd3 -4.726378019118603e-15
pro3Rd3 1.0547118733939167e-14
pro4Rd3 -0.0
pro5Rd3 -0.0
pro6Rd3 1.0
pro7Rd3 -0.0
pro8Rd3 0.0
pro9Rd3 7.533656238527975e-15
pro10Rd3 -0.0
pro11Rd3 -1.118153189086774e-15
pro12Rd3 0.0
pro13Rd3 -0.0
pro14Rd3 -0.0
pro0Rd4 1.5860328923216852e-15
pro1Rd4 -0.0
pro2Rd4 -3.2315420181054126e-16
pro3Rd4 0.0
pro4Rd4 6.819941436983193e-16
pro5Rd4 4.726378019118603e-15
pro6Rd4 0.9999999999999952
pro7Rd4 -7.64467854099049e-15
pro8Rd4 -2.973811673103139e-15
pro9Rd4 -0.0
pro10Rd4 1.9825411154026104e-17
pro11Rd4 -1.118153189086774e-15
pro12Rd4 0.0
pro13Rd4 1.0
pro14Rd4 -0.0
pro0Rd5 0.0
pro1Rd5 -1.1419436824716072e-15
pro2Rd5 -0.0
pro3Rd5 1.0
pro4Rd5 1.0
pro5Rd5 0.0
pro6Rd5 1.0000000000000047
pro7Rd5 5.709718412358245e-16
pro8Rd5 -0.0
pro9Rd5 0.0
pro10Rd5 5.927797935052236e-16
pro11Rd5 1.0
pro12Rd5 4.726378019118603e-15
pro13Rd5 1.0
pro14Rd5 2.3631890095593015e-15
p0 8.120488408687018e-15
p1 2.3156080227896387e-15
p2 4.060244204343509e-15
p3 -2.220446049250313e-16
p4 -1.1102230246251565e-16
p5 -2.220446049250313e-16
p6 1.0
p7 -0.0
p8 -6.724779463443885e-15
p9 -3.552713678800501e-15
p10 0.0
p11 1.0
p12 8.120488408687018e-15
p13 1.0000000000000082
p14 -0.0
p15 1.0000000000000049
p16 -3.552713678800501e-15
p17 0.0
p18 0.0
p19 -0.0
p20 1.0
p21 1.0
p22 1.0
p23 8.120488408687018e-15
p24 -4.948422624043634e-15
p25 9.896845248087269e-15
p26 0.0
p27 -1.1102230246251565e-16
p28 -2.220446049250313e-16
p29 1.0
p30 -2.220446049250313e-16
p31 -4.948422624043634e-15
p0Rd1 0.0
p16Rd1 0.0
temp0Rnd0 0.0
p1Rd1 0.0
p17Rd1 -0.0
temp1Rnd0 0.0
p2Rd1 1.0
p18Rd1 0.0
temp2Rnd0 1.0
p3Rd1 1.0000000000000004
p19Rd1 -2.220446049250313e-16
temp3Rnd0 1.0
p4Rd1 1.0
p20Rd1 -0.0
temp4Rnd0 1.0
p5Rd1 8.120488408687018e-15
p21Rd1 -0.0
temp5Rnd0 8.120488408687018e-15
p6Rd1 -4.948422624043634e-15
p22Rd1 0.0
temp6Rnd0 -4.948422624043634e-15
p7Rd1 8.120488408687018e-15
p23Rd1 0.0
temp7Rnd0 8.120488408687018e-15
p8Rd1 0.0
p24Rd1 0.0
temp8Rnd0 0.0
p9Rd1 0.0
p25Rd1 -0.0
temp9Rnd0 0.0
p10Rd1 -2.220446049250313e-16
p26Rd1 -0.0
temp10Rnd0 -0.0
p11Rd1 0.0
p27Rd1 1.0
temp11Rnd0 1.0
p12Rd1 -2.220446049250313e-16
p28Rd1 0.0
temp12Rnd0 -2.220446049250313e-16
p13Rd1 -0.0
p29Rd1 -4.948422624043634e-15
temp13Rnd0 -4.948422624043634e-15
p14Rd1 -0.0
p30Rd1 -3.552713678800501e-15
temp14Rnd0 -3.552713678800501e-15
p15Rd1 -0.0
p31Rd1 -0.0
temp15Rnd0 0.0
temp0 -6.724779463443885e-15
p0Rd2 0.0
p16Rd2 -0.0
temp0Rnd1 -0.0
p1Rd2 -2.220446049250313e-16
p17Rd2 0.0
temp1Rnd1 -2.220446049250313e-16
p2Rd2 -0.0
p18Rd2 0.0
temp2Rnd1 0.0
p3Rd2 0.0
p19Rd2 0.0
temp3Rnd1 -0.0
p4Rd2 -0.0
p20Rd2 0.0
temp4Rnd1 -0.0
p5Rd2 -0.0
p21Rd2 4.440892098500626e-16
temp5Rnd1 4.440892098500626e-16
p6Rd2 0.0
p22Rd2 -4.504333414193572e-15
temp6Rnd1 -2.252166707096786e-15
p7Rd2 -0.0
p23Rd2 0.0
temp7Rnd1 -0.0
p8Rd2 -0.0
p24Rd2 -2.220446049250313e-16
temp8Rnd1 1.1102230246251565e-16
p9Rd2 1.0
p25Rd2 0.0
temp9Rnd1 1.0
p10Rd2 0.0
p26Rd2 0.0
temp10Rnd1 0.0
p11Rd2 0.0
p27Rd2 -0.0
temp11Rnd1 -2.474211312021817e-15
p12Rd2 4.060244204343509e-15
p28Rd2 -0.0
temp12Rnd1 6.978544726215667e-16
p13Rd2 0.0
p29Rd2 -0.0
temp13Rnd1 0.0
p14Rd2 9.896845248087269e-15
p30Rd2 -0.0
temp14Rnd1 4.504333414193572e-15
p15Rd2 -0.0
p31Rd2 -1.527349675305777e-14
temp15Rnd1 -7.636748376528885e-15
temp1 0.0
p0Rd3 1.0
p16Rd3 1.0
temp0Rnd2 1.0
p1Rd3 0.0
p17Rd3 0.0
temp1Rnd2 0.0
p2Rd3 -0.0
p18Rd3 0.0
temp2Rnd2 -0.0
p3Rd3 4.28228880926854e-15
p19Rd3 4.726378019118603e-15
temp3Rnd2 4.726378019118603e-15
p4Rd3 0.0
p20Rd3 -4.615355716656087e-15
temp4Rnd2 -4.615355716656087e-15
p5Rd3 0.0
p21Rd3 0.0
temp5Rnd2 0.0
p6Rd3 -2.220446049250313e-16
p22Rd3 -0.0
temp6Rnd2 -2.220446049250313e-16
p7Rd3 -0.0
p23Rd3 0.0
temp7Rnd2 0.0
p8Rd3 -0.0
p24Rd3 0.0
temp8Rnd2 0.0
p9Rd3 0.0
p25Rd3 0.0
temp9Rnd2 0.0
p10Rd3 0.0
p26Rd3 0.0
temp10Rnd2 0.0
p11Rd3 0.0
p27Rd3 0.0
temp11Rnd2 0.0
p12Rd3 -0.0
p28Rd3 -0.0
temp12Rnd2 0.0
p13Rd3 -1.5495541357982802e-14
p29Rd3 -2.220446049250313e-16
temp13Rnd2 -1.5495541357982802e-14
p14Rd3 0.0
p30Rd3 -0.0
temp14Rnd2 -0.0
p15Rd3 0.0
p31Rd3 -0.0
temp15Rnd2 -0.0
temp2 -7.636748376528885e-15
p0Rd4 1.0000000000000047
p16Rd4 1.0000000000000047
temp0Rnd3 1.0000000000000047
p1Rd4 -4.726378019118603e-15
p17Rd4 -0.0
temp1Rnd3 0.0
p2Rd4 -4.726378019118603e-15
p18Rd4 0.0
temp2Rnd3 -4.726378019118603e-15
p3Rd4 -1.4274296030895008e-15
p19Rd4 -1.4274296030895008e-15
temp3Rnd3 -1.4274296030895008e-15
p4Rd4 6.264829924670614e-16
p20Rd4 6.264829924670614e-16
temp4Rnd3 6.264829924670614e-16
p5Rd4 -0.0
p21Rd4 0.0
temp5Rnd3 -0.0
p6Rd4 -0.0
p22Rd4 0.0
temp6Rnd3 0.0
p7Rd4 1.0
p23Rd4 1.0
temp7Rnd3 1.0
p8Rd4 -0.0
p24Rd4 0.0
temp8Rnd3 0.0
p9Rd4 -0.0
p25Rd4 0.0
temp9Rnd3 0.0
p10Rd4 7.533656238527975e-15
p26Rd4 7.533656238527975e-15
temp10Rnd3 7.533656238527975e-15
p11Rd4 0.0
p27Rd4 5.709718412358036e-16
temp11Rnd3 2.854859206179018e-16
p12Rd4 -1.118153189086774e-15
p28Rd4 -1.118153189086774e-15
temp12Rnd3 -1.118153189086774e-15
p13Rd4 0.0
p29Rd4 -0.0
temp13Rnd3 0.0
p14Rd4 -0.0
p30Rd4 1.0
temp14Rnd3 1.0
p15Rd4 0.0
p31Rd4 -0.0
temp15Rnd3 0.0
temp3 0.0
p0Rd5 1.0000000000000027
p16Rd5 1.0000000000000024
temp0Rnd4 1.0000000000000027
p1Rd5 -0.0
p17Rd5 2.2997476938664266e-15
temp1Rnd4 6.582036503134942e-16
p2Rd5 1.015061051085887e-15
p18Rd5 1.665334536937756e-15
temp2Rnd4 1.015061051085887e-15
p3Rd5 -2.236306378173548e-15
p19Rd5 -2.236306378173548e-15
temp3Rnd4 -2.236306378173548e-15
p4Rd5 -0.0
p20Rd5 -0.0
temp4Rnd4 -0.0
p5Rd5 6.819941436983193e-16
p21Rd5 0.9999999999999994
temp5Rnd4 1.0
p6Rd5 4.726378019118603e-15
p22Rd5 0.0
temp6Rnd4 2.363189009559301e-15
p7Rd5 -0.0
p23Rd5 0.0
temp7Rnd4 0.0
p8Rd5 -7.64467854099049e-15
p24Rd5 -0.0
temp8Rnd4 0.0
p9Rd5 -1.808077497246722e-15
p25Rd5 1.015061051085887e-15
temp9Rnd4 -0.0
p10Rd5 2.2997476938664266e-15
p26Rd5 -2.236306378173548e-15
temp10Rnd4 -0.0
p11Rd5 5.511464300817775e-16
p27Rd5 5.927797935052236e-16
temp11Rnd4 5.511464300817775e-16
p12Rd5 -2.236306378173548e-15
p28Rd5 1.000000000000002
temp12Rnd4 1.0
p13Rd5 0.0
p29Rd5 0.0
temp13Rnd4 0.0
p14Rd5 -0.0
p30Rd5 1.0000000000000047
temp14Rnd4 1.0000000000000047
p15Rd5 0.0
p31Rd5 0.0
temp15Rnd4 0.0
temp4 0.0
p0Rd6 1.0000000000000013
p16Rd6 1.0000000000000009
temp0Rnd5 1.0000000000000013
p1Rd6 2.2997476938664266e-15
p17Rd6 -0.0
temp1Rnd5 -1.764461592707776e-16
p2Rd6 1.665334536937756e-15
p18Rd6 1.665334536937756e-15
temp2Rnd5 1.665334536937756e-15
p3Rd6 -2.236306378173548e-15
p19Rd6 1.0000000000000033
temp3Rnd5 1.0
p4Rd6 1.0
p20Rd6 1.0
temp4Rnd5 1.0
p5Rd6 0.9999999999999998
p21Rd6 1.0
temp5Rnd5 1.0
p6Rd6 0.0
p22Rd6 -0.0
temp6Rnd5 0.0
p7Rd6 1.0000000000000033
p23Rd6 1.0000000000000018
temp7Rnd5 1.0000000000000033
p8Rd6 1.2371056560109184e-15
p24Rd6 0.0
temp8Rnd5 -0.0
p9Rd6 1.015061051085887e-15
p25Rd6 6.026924990822513e-16
temp9Rnd5 1.015061051085887e-15
p10Rd6 -2.236306378173548e-15
p26Rd6 1.0000000000000036
temp10Rnd5 1.000000000000002
p11Rd6 1.1855595870104473e-15
p27Rd6 -1.0745372845479316e-15
temp11Rnd5 0.0
p12Rd6 1.0
p28Rd6 -4.726378019118603e-15
temp12Rnd5 1.0
p13Rd6 4.726378019118603e-15
p29Rd6 4.726378019118603e-15
temp13Rnd5 4.726378019118603e-15
p14Rd6 1.0000000000000024
p30Rd6 -0.0
temp14Rnd5 1.0000000000000024
p15Rd6 -5.186327557891821e-15
p31Rd6 -0.0
temp15Rnd5 -0.0
temp5 -6.4710142006724134e-15
